
Gurobi 11.0.0 (win64) logging started Thu Apr 18 15:26:51 2024

Set parameter LogFile to value "./Results/StripPacking_CutsTest_SU/Logs/SU-StripPacking-21.log"
Set parameter TimeLimit to value 3600
Set parameter Cuts to value 1
Set parameter Presolve to value 1
Set parameter Heuristics to value 1
Gurobi Optimizer version 11.0.0 build v11.0.0rc2 (win64 - Windows 10.0 (19045.2))

CPU model: Intel(R) Core(TM) i9-10980XE CPU @ 3.00GHz, instruction set [SSE2|AVX|AVX2|AVX512]
Thread count: 18 physical cores, 36 logical processors, using up to 18 threads

Optimize a model with 2751 rows, 883 columns and 6762 nonzeros
Model fingerprint: 0x71ede791
Variable types: 43 continuous, 840 integer (840 binary)
Coefficient statistics:
  Matrix range     [1e+00, 3e+02]
  Objective range  [1e+00, 1e+00]
  Bounds range     [1e+00, 3e+02]
  RHS range        [1e+00, 3e+02]
Presolve removed 27 rows and 11 columns
Presolve time: 0.03s
Presolved: 2724 rows, 872 columns, 6692 nonzeros
Variable types: 43 continuous, 829 integer (829 binary)

Root relaxation: objective 1.540000e+02, 638 iterations, 0.05 seconds (0.02 work units)

    Nodes    |    Current Node    |     Objective Bounds      |     Work
 Expl Unexpl |  Obj  Depth IntInf | Incumbent    BestBd   Gap | It/Node Time

     0     0  154.00000    0   49          -  154.00000      -     -    0s
     0     0  172.00000    0   44          -  172.00000      -     -    0s
     0     0  172.00000    0  133          -  172.00000      -     -    0s
     0     0  174.29202    0  166          -  174.29202      -     -    0s
     0     0  189.58331    0   48          -  189.58331      -     -    0s
     0     0  192.44819    0   59          -  192.44819      -     -    0s
     0     0  192.44819    0   67          -  192.44819      -     -    0s
     0     0  193.34981    0   83          -  193.34981      -     -    0s
     0     0  195.56277    0   86          -  195.56277      -     -    0s
     0     0  195.56277    0   86          -  195.56277      -     -    0s
     0     0  195.56277    0   91          -  195.56277      -     -    0s
     0     0  195.56277    0  125          -  195.56277      -     -    0s
     0     0  195.56277    0  102          -  195.56277      -     -    0s
     0     0  195.56277    0  136          -  195.56277      -     -    0s
     0     0  202.00000    0   46          -  202.00000      -     -    0s
     0     0  202.00000    0  115          -  202.00000      -     -    0s
     0     0  202.00000    0   51          -  202.00000      -     -    0s
     0     0  202.00000    0  103          -  202.00000      -     -    0s
     0     0  202.00000    0   50          -  202.00000      -     -    0s
     0     0  202.00000    0  108          -  202.00000      -     -    0s
     0     0  202.00000    0   42          -  202.00000      -     -    0s
     0     0  202.00000    0   42          -  202.00000      -     -    0s
     0     2  202.00000    0   34          -  202.00000      -     -    5s
* 2119  1103              65     297.0000000  212.00000  28.6%  25.4    6s
H 3116   981                     296.0000000  217.55814  26.5%  23.6    7s
  3420  1090  281.00000   16   74  296.00000  234.00000  20.9%  23.3   10s
H 3435   976                     293.0000000  234.00000  20.1%  23.4   10s
H 3442   976                     292.0000000  234.00000  19.9%  23.4   10s
H 3692   930                     287.0000000  234.00000  18.5%  23.4   11s
H 3717   916                     286.0000000  234.00000  18.2%  23.5   13s
  3742   899 infeasible   13       286.00000  234.00000  18.2%  23.5   16s
H 3804   898                     286.0000000  241.41860  15.6%  23.8   18s
  4059   866 infeasible   11       286.00000  254.00000  11.2%  23.7   21s
  4150   787 infeasible   19       286.00000  254.00000  11.2%  23.7   27s
  4249   768 infeasible   20       286.00000  254.00000  11.2%  23.4   30s
  4671   629  281.00000   13   81  286.00000  257.00000  10.1%  22.7   37s
  4724   587  281.00000   14   87  286.00000  257.00000  10.1%  22.7   41s
  4887   492  281.00000   16   95  286.00000  257.00000  10.1%  22.2   50s
  5034   210  281.00000   18   92  286.00000  270.00000  5.59%  21.8   57s
  5586   212 infeasible   22       286.00000  271.00000  5.24%  20.6   60s
  5620   227  271.00000   12   77  286.00000  271.00000  5.24%  20.5   65s
  5765   473 infeasible   17       286.00000  271.00000  5.24%  20.2   71s
  6639   427  284.00000   35   40  286.00000  281.00000  1.75%  22.8   75s
H 6640   408                     284.0000000  281.00000  1.06%  22.8   75s
H 6748   286                     282.0000000  281.00000  0.35%  22.6   77s

Cutting planes:
  Learned: 168
  Cover: 27
  Implied bound: 3
  MIR: 35
  Flow cover: 92
  Zero half: 3
  RLT: 18
  Relax-and-lift: 9

Explored 6874 nodes (163273 simplex iterations) in 77.45 seconds (63.52 work units)
Thread count was 18 (of 36 available processors)

Solution count 9: 282 284 286 ... 297

Optimal solution found (tolerance 1.00e-04)
Best objective 2.820000000000e+02, best bound 2.820000000000e+02, gap 0.0000%

Gurobi 11.0.0 (win64) logging started Thu Apr 18 15:28:09 2024

Set parameter LogFile to value "./Results/StripPacking_CutsTest_SU/Logs/SU-StripPacking-21.log"
Set parameter TimeLimit to value 3600
Set parameter Cuts to value 1
Set parameter Presolve to value 0
Set parameter Heuristics to value 0
Gurobi Optimizer version 11.0.0 build v11.0.0rc2 (win64 - Windows 10.0 (19045.2))

CPU model: Intel(R) Core(TM) i9-10980XE CPU @ 3.00GHz, instruction set [SSE2|AVX|AVX2|AVX512]
Thread count: 18 physical cores, 36 logical processors, using up to 18 threads

Optimize a model with 2751 rows, 883 columns and 6762 nonzeros
Model fingerprint: 0x71ede791
Variable types: 43 continuous, 840 integer (840 binary)
Coefficient statistics:
  Matrix range     [1e+00, 3e+02]
  Objective range  [1e+00, 1e+00]
  Bounds range     [1e+00, 3e+02]
  RHS range        [1e+00, 3e+02]
Variable types: 43 continuous, 840 integer (840 binary)

Root relaxation: objective 1.540000e+02, 583 iterations, 0.01 seconds (0.02 work units)

    Nodes    |    Current Node    |     Objective Bounds      |     Work
 Expl Unexpl |  Obj  Depth IntInf | Incumbent    BestBd   Gap | It/Node Time

     0     0  154.00000    0   56          -  154.00000      -     -    0s
     0     0  172.00000    0   44          -  172.00000      -     -    0s
     0     0  172.00000    0  151          -  172.00000      -     -    0s
     0     0  172.00000    0  166          -  172.00000      -     -    0s
     0     0  188.33108    0   65          -  188.33108      -     -    0s
     0     0  188.33108    0   87          -  188.33108      -     -    0s
     0     0  192.66667    0   90          -  192.66667      -     -    0s
     0     0  192.82390    0   95          -  192.82390      -     -    0s
     0     0  198.71480    0  136          -  198.71480      -     -    0s
     0     0  198.71480    0  110          -  198.71480      -     -    0s
     0     0  198.71480    0   85          -  198.71480      -     -    0s
     0     0  198.71480    0   86          -  198.71480      -     -    0s
     0     0  198.71480    0   46          -  198.71480      -     -    0s
     0     0  198.71480    0   66          -  198.71480      -     -    0s
     0     0  202.00000    0   52          -  202.00000      -     -    0s
     0     0  202.00000    0   66          -  202.00000      -     -    0s
     0     0  202.00000    0   41          -  202.00000      -     -    0s
H    0     0                     295.0000000  202.00000  31.5%     -    0s
     0     0  202.00000    0   48  295.00000  202.00000  31.5%     -    0s
     0     0  202.00000    0   49  295.00000  202.00000  31.5%     -    0s
     0     0  202.00000    0   89  295.00000  202.00000  31.5%     -    0s
     0     0  202.00000    0   52  295.00000  202.00000  31.5%     -    0s
     0     0  202.00000    0   51  295.00000  202.00000  31.5%     -    0s
     0     2  202.00000    0   46  295.00000  202.00000  31.5%     -    0s
* 2131  1393              92     294.0000000  221.69014  24.6%  19.0    1s
* 2245  1140              83     292.0000000  221.69014  24.1%  18.5    1s
* 5348  1070              46     291.0000000  271.00000  6.87%  19.3    4s
* 5610  1113              63     289.0000000  271.00000  6.23%  19.0    4s
* 5728  1094              58     288.0000000  271.00000  5.90%  18.9    4s
* 6012  1013              72     287.0000000  281.00000  2.09%  18.8    4s
* 6384  1042              61     286.0000000  281.00000  1.75%  18.6    4s
  6946   737  281.00000   37   81  286.00000  281.00000  1.75%  18.0    5s
* 7247   789              62     284.0000000  281.00000  1.06%  18.0    5s
* 8476   198              58     283.0000000  282.00000  0.35%  16.6    6s
* 8630   316              62     282.0000000  282.00000  0.00%  16.5    6s

Cutting planes:
  Learned: 98
  Gomory: 1
  Cover: 10
  Implied bound: 1
  MIR: 28
  Flow cover: 66
  RLT: 12
  Relax-and-lift: 7

Explored 8980 nodes (154681 simplex iterations) in 6.25 seconds (2.68 work units)
Thread count was 18 (of 36 available processors)

Solution count 10: 282 283 284 ... 294

Optimal solution found (tolerance 1.00e-04)
Best objective 2.820000000000e+02, best bound 2.820000000000e+02, gap 0.0000%

Gurobi 11.0.0 (win64) logging started Thu Apr 18 15:28:15 2024

Set parameter LogFile to value "./Results/StripPacking_CutsTest_SU/Logs/SU-StripPacking-21.log"
Set parameter TimeLimit to value 3600
Set parameter Cuts to value 0
Set parameter Presolve to value 1
Set parameter Heuristics to value 0
Gurobi Optimizer version 11.0.0 build v11.0.0rc2 (win64 - Windows 10.0 (19045.2))

CPU model: Intel(R) Core(TM) i9-10980XE CPU @ 3.00GHz, instruction set [SSE2|AVX|AVX2|AVX512]
Thread count: 18 physical cores, 36 logical processors, using up to 18 threads

Optimize a model with 2751 rows, 883 columns and 6762 nonzeros
Model fingerprint: 0x71ede791
Variable types: 43 continuous, 840 integer (840 binary)
Coefficient statistics:
  Matrix range     [1e+00, 3e+02]
  Objective range  [1e+00, 1e+00]
  Bounds range     [1e+00, 3e+02]
  RHS range        [1e+00, 3e+02]
Presolve removed 27 rows and 11 columns
Presolve time: 0.00s
Presolved: 2724 rows, 872 columns, 6692 nonzeros
Variable types: 43 continuous, 829 integer (829 binary)

Root relaxation: objective 1.540000e+02, 638 iterations, 0.02 seconds (0.02 work units)

    Nodes    |    Current Node    |     Objective Bounds      |     Work
 Expl Unexpl |  Obj  Depth IntInf | Incumbent    BestBd   Gap | It/Node Time

     0     0  154.00000    0   49          -  154.00000      -     -    0s
     0     0  172.00000    0   44          -  172.00000      -     -    0s
     0     0  172.00000    0   41          -  172.00000      -     -    0s
     0     2  172.00000    0   32          -  172.00000      -     -    0s
* 4567  2330              47     297.0000000  199.00000  33.0%   8.8    1s
* 4803  2174              54     296.0000000  199.00000  32.8%   9.4    1s
* 5234  1994              64     293.0000000  199.00000  32.1%  10.4    1s
* 5682  1710              83     290.0000000  202.00000  30.3%  11.1    1s
* 7166  1149              92     288.0000000  217.79341  24.4%  11.8    1s
* 7873  1290              61     287.0000000  271.00000  5.57%  12.2    1s
* 9533  1029              74     286.0000000  271.00000  5.24%  13.2    2s
*20337  2247              64     285.0000000  281.00000  1.40%  12.2    3s
*24342  2157              63     284.0000000  281.00000  1.06%  11.2    4s
*24893  1419              65     283.0000000  281.00000  0.71%  11.4    4s
*24894   439              65     282.0000000  281.00000  0.35%  11.4    4s

Explored 25821 nodes (357981 simplex iterations) in 4.19 seconds (2.69 work units)
Thread count was 18 (of 36 available processors)

Solution count 10: 282 283 284 ... 296

Optimal solution found (tolerance 1.00e-04)
Best objective 2.820000000000e+02, best bound 2.820000000000e+02, gap 0.0000%

Gurobi 11.0.0 (win64) logging started Thu Apr 18 15:28:19 2024

Set parameter LogFile to value "./Results/StripPacking_CutsTest_SU/Logs/SU-StripPacking-21.log"
Set parameter TimeLimit to value 3600
Set parameter Cuts to value 0
Set parameter Presolve to value 0
Set parameter Heuristics to value 1
Gurobi Optimizer version 11.0.0 build v11.0.0rc2 (win64 - Windows 10.0 (19045.2))

CPU model: Intel(R) Core(TM) i9-10980XE CPU @ 3.00GHz, instruction set [SSE2|AVX|AVX2|AVX512]
Thread count: 18 physical cores, 36 logical processors, using up to 18 threads

Optimize a model with 2751 rows, 883 columns and 6762 nonzeros
Model fingerprint: 0x71ede791
Variable types: 43 continuous, 840 integer (840 binary)
Coefficient statistics:
  Matrix range     [1e+00, 3e+02]
  Objective range  [1e+00, 1e+00]
  Bounds range     [1e+00, 3e+02]
  RHS range        [1e+00, 3e+02]
Variable types: 43 continuous, 840 integer (840 binary)

Root relaxation: objective 1.540000e+02, 583 iterations, 0.00 seconds (0.02 work units)

    Nodes    |    Current Node    |     Objective Bounds      |     Work
 Expl Unexpl |  Obj  Depth IntInf | Incumbent    BestBd   Gap | It/Node Time

     0     0  154.00000    0   56          -  154.00000      -     -    0s
     0     0  172.00000    0   44          -  172.00000      -     -    0s
     0     0  172.00000    0   39          -  172.00000      -     -    0s
     0     2  172.00000    0   33          -  172.00000      -     -    0s
H 1884  1196                     300.0000000  172.00000  42.7%  24.6    0s
H 2073  1232                     297.0000000  172.00000  42.1%  23.9    0s
H 2304  1200                     293.0000000  176.14754  39.9%  22.4    0s
H 3716  1443                     292.0000000  202.00000  30.8%  21.3    1s
H 3797  1347                     292.0000000  202.00000  30.8%  21.0    3s
H 3801  1282                     290.0000000  202.00000  30.3%  21.1    3s
H 3805  1221                     286.0000000  202.00000  29.4%  21.1    3s
  4196  1106  282.00000   36   96  286.00000  280.00000  2.10%  21.4    5s
H 4296  1032                     284.0000000  280.00000  1.41%  21.3    6s
* 4457   918              49     283.0000000  281.00000  0.71%  21.3    7s
H 4474   887                     282.0000000  281.00000  0.35%  21.4    7s
H 4796   525                     282.0000000  281.00000  0.35%  20.6    7s
  5553   264 infeasible   44       282.00000  281.00000  0.35%  20.3   11s

Explored 5612 nodes (114722 simplex iterations) in 11.99 seconds (9.99 work units)
Thread count was 18 (of 36 available processors)

Solution count 10: 282 282 283 ... 297

Optimal solution found (tolerance 1.00e-04)
Best objective 2.819999999717e+02, best bound 2.819999999717e+02, gap 0.0000%

Gurobi 11.0.0 (win64) logging started Thu Apr 18 15:28:32 2024

Set parameter LogFile to value "./Results/StripPacking_CutsTest_SU/Logs/SU-StripPacking-21.log"
Set parameter TimeLimit to value 3600
Set parameter Cuts to value 1
Set parameter Presolve to value 1
Set parameter Heuristics to value 0
Gurobi Optimizer version 11.0.0 build v11.0.0rc2 (win64 - Windows 10.0 (19045.2))

CPU model: Intel(R) Core(TM) i9-10980XE CPU @ 3.00GHz, instruction set [SSE2|AVX|AVX2|AVX512]
Thread count: 18 physical cores, 36 logical processors, using up to 18 threads

Optimize a model with 2751 rows, 883 columns and 6762 nonzeros
Model fingerprint: 0x71ede791
Variable types: 43 continuous, 840 integer (840 binary)
Coefficient statistics:
  Matrix range     [1e+00, 3e+02]
  Objective range  [1e+00, 1e+00]
  Bounds range     [1e+00, 3e+02]
  RHS range        [1e+00, 3e+02]
Presolve removed 27 rows and 11 columns
Presolve time: 0.02s
Presolved: 2724 rows, 872 columns, 6692 nonzeros
Variable types: 43 continuous, 829 integer (829 binary)

Root relaxation: objective 1.540000e+02, 638 iterations, 0.00 seconds (0.02 work units)

    Nodes    |    Current Node    |     Objective Bounds      |     Work
 Expl Unexpl |  Obj  Depth IntInf | Incumbent    BestBd   Gap | It/Node Time

     0     0  154.00000    0   49          -  154.00000      -     -    0s
     0     0  172.00000    0   44          -  172.00000      -     -    0s
     0     0  172.00000    0  133          -  172.00000      -     -    0s
     0     0  174.29202    0  166          -  174.29202      -     -    0s
     0     0  189.58331    0   56          -  189.58331      -     -    0s
     0     0  192.44819    0   84          -  192.44819      -     -    0s
     0     0  192.44819    0   79          -  192.44819      -     -    0s
     0     0  201.00000    0  122          -  201.00000      -     -    0s
     0     0  202.00000    0  100          -  202.00000      -     -    0s
     0     0  202.00000    0   97          -  202.00000      -     -    0s
     0     0  202.00000    0  142          -  202.00000      -     -    0s
     0     0  202.00000    0  118          -  202.00000      -     -    0s
     0     0  202.00000    0  105          -  202.00000      -     -    0s
     0     0  202.00000    0  110          -  202.00000      -     -    0s
     0     0  202.00000    0   63          -  202.00000      -     -    0s
     0     0  202.00000    0   75          -  202.00000      -     -    0s
     0     0  202.00000    0   75          -  202.00000      -     -    0s
     0     0  202.00000    0  116          -  202.00000      -     -    0s
     0     0  202.00000    0  104          -  202.00000      -     -    0s
     0     0  202.00000    0  140          -  202.00000      -     -    0s
     0     0  202.00000    0  145          -  202.00000      -     -    0s
     0     0  202.00000    0  144          -  202.00000      -     -    0s
     0     0  202.00000    0  130          -  202.00000      -     -    0s
     0     0  202.00000    0  136          -  202.00000      -     -    0s
     0     0  202.00000    0   51          -  202.00000      -     -    0s
     0     0  202.00000    0   77          -  202.00000      -     -    0s
     0     0  202.00000    0  125          -  202.00000      -     -    0s
     0     0  202.00000    0   51          -  202.00000      -     -    0s
     0     2  202.00000    0   34          -  202.00000      -     -    0s
* 1832  1148              65     300.0000000  213.00000  29.0%  22.1    1s
* 2569  1537              96     298.0000000  213.00000  28.5%  19.6    1s
* 2579  1292             101     297.0000000  213.00000  28.3%  19.5    1s
* 4939  2051              54     296.0000000  232.57471  21.4%  22.0    3s
* 5132  1906              64     294.0000000  232.57471  20.9%  21.9    4s
* 5280  2005              52     293.0000000  232.57471  20.6%  22.2    4s
* 5657  2001              78     292.0000000  232.57471  20.4%  22.3    4s
* 5820  1874              87     288.0000000  238.00000  17.4%  22.2    4s
* 6634  1430              90     287.0000000  238.00000  17.1%  21.3    4s
* 7215  1453              70     286.0000000  238.00000  16.8%  20.5    4s
  8195   898     cutoff   44       286.00000  281.00000  1.75%  19.2    5s
* 8668   876              74     284.0000000  281.00000  1.06%  19.4    5s
* 9582  1249              65     282.0000000  281.00000  0.35%  18.1    5s

Cutting planes:
  Learned: 104
  Cover: 10
  Implied bound: 2
  MIR: 25
  Flow cover: 43
  RLT: 10
  Relax-and-lift: 12

Explored 10739 nodes (187263 simplex iterations) in 6.52 seconds (2.86 work units)
Thread count was 18 (of 36 available processors)

Solution count 10: 282 284 286 ... 297

Optimal solution found (tolerance 1.00e-04)
Best objective 2.820000000000e+02, best bound 2.820000000000e+02, gap 0.0000%

Gurobi 11.0.0 (win64) logging started Thu Apr 18 15:28:38 2024

Set parameter LogFile to value "./Results/StripPacking_CutsTest_SU/Logs/SU-StripPacking-21.log"
Set parameter TimeLimit to value 3600
Set parameter Cuts to value 1
Set parameter Presolve to value 0
Set parameter Heuristics to value 1
Gurobi Optimizer version 11.0.0 build v11.0.0rc2 (win64 - Windows 10.0 (19045.2))

CPU model: Intel(R) Core(TM) i9-10980XE CPU @ 3.00GHz, instruction set [SSE2|AVX|AVX2|AVX512]
Thread count: 18 physical cores, 36 logical processors, using up to 18 threads

Optimize a model with 2751 rows, 883 columns and 6762 nonzeros
Model fingerprint: 0x71ede791
Variable types: 43 continuous, 840 integer (840 binary)
Coefficient statistics:
  Matrix range     [1e+00, 3e+02]
  Objective range  [1e+00, 1e+00]
  Bounds range     [1e+00, 3e+02]
  RHS range        [1e+00, 3e+02]
Variable types: 43 continuous, 840 integer (840 binary)

Root relaxation: objective 1.540000e+02, 583 iterations, 0.02 seconds (0.02 work units)

    Nodes    |    Current Node    |     Objective Bounds      |     Work
 Expl Unexpl |  Obj  Depth IntInf | Incumbent    BestBd   Gap | It/Node Time

     0     0  154.00000    0   56          -  154.00000      -     -    0s
     0     0  172.00000    0   44          -  172.00000      -     -    0s
     0     0  172.00000    0  151          -  172.00000      -     -    0s
     0     0  172.00000    0  166          -  172.00000      -     -    0s
     0     0  188.33108    0   56          -  188.33108      -     -    0s
     0     0  188.33108    0   72          -  188.33108      -     -    0s
     0     0  192.66667    0  112          -  192.66667      -     -    0s
     0     0  192.80100    0  101          -  192.80100      -     -    0s
     0     0  198.71480    0   89          -  198.71480      -     -    0s
     0     0  198.71480    0  114          -  198.71480      -     -    0s
     0     0  198.71480    0   88          -  198.71480      -     -    0s
     0     0  198.71480    0  121          -  198.71480      -     -    0s
     0     0  198.71480    0   62          -  198.71480      -     -    0s
     0     0  198.71480    0   74          -  198.71480      -     -    0s
     0     0  198.71480    0   50          -  198.71480      -     -    0s
     0     0  198.71480    0   68          -  198.71480      -     -    0s
     0     0  198.71480    0   66          -  198.71480      -     -    0s
     0     0  198.71480    0   55          -  198.71480      -     -    0s
     0     0  202.00000    0   41          -  202.00000      -     -    0s
     0     0  202.00000    0  108          -  202.00000      -     -    0s
     0     0  202.00000    0   45          -  202.00000      -     -    0s
     0     0  202.00000    0   39          -  202.00000      -     -    0s
     0     2  202.00000    0   37          -  202.00000      -     -    0s
H  691   510                     297.0000000  202.00000  32.0%  33.8    1s
H  813   561                     297.0000000  202.00000  32.0%  31.7    1s
  1791   942  296.00000   14   95  297.00000  202.00000  32.0%  25.4    5s
H 2064   983                     292.0000000  202.00000  30.8%  25.9    8s
H 2075   978                     286.0000000  202.00000  29.4%  26.0    9s
  2173   951 infeasible   14       286.00000  202.00000  29.4%  26.1   11s
  2241   960 infeasible   14       286.00000  209.48819  26.8%  26.5   15s
  2385   973 infeasible   13       286.00000  210.57480  26.4%  27.3   20s
  2662   975 infeasible   14       286.00000  213.42901  25.4%  27.5   26s
  2725   965  256.00000   12   78  286.00000  213.42901  25.4%  27.6   31s
  3290   952  268.00000   25   86  286.00000  225.00000  21.3%  27.4   37s
  3359   950  268.00000   27   76  286.00000  225.00000  21.3%  27.5   41s
  3589   926  268.00000   29   74  286.00000  225.00000  21.3%  27.6   46s
  3779   917  268.00000   35  104  286.00000  225.00000  21.3%  27.5   50s
  4328   888 infeasible   36       286.00000  225.00000  21.3%  27.2   55s
  4869  1014  281.00000   18   78  286.00000  252.00000  11.9%  26.4   60s
  6710   785  271.00000   13   80  286.00000  270.00000  5.59%  21.8   68s
  6862   787  271.00000   14   86  286.00000  270.00000  5.59%  21.5   72s
  8330   813  281.00000   35   74  286.00000  271.00000  5.24%  19.3   77s
H 8331   813                     286.0000000  271.00000  5.24%  19.3   77s
 10290   707  281.00000   47   39  286.00000  271.00000  5.24%  17.0   80s
H10636   691                     284.0000000  281.00000  1.06%  18.5   83s
 10781   584  282.00000   36   64  284.00000  281.00000  1.06%  18.5   86s
H10786   548                     282.0000000  281.00000  0.35%  18.5   86s

Cutting planes:
  Learned: 142
  Gomory: 1
  Cover: 19
  Implied bound: 1
  MIR: 38
  Flow cover: 32
  RLT: 11
  Relax-and-lift: 10

Explored 10864 nodes (210627 simplex iterations) in 86.48 seconds (68.36 work units)
Thread count was 18 (of 36 available processors)

Solution count 7: 282 284 286 ... 297

Optimal solution found (tolerance 1.00e-04)
Best objective 2.820000000000e+02, best bound 2.820000000000e+02, gap 0.0000%

Gurobi 11.0.0 (win64) logging started Thu Apr 18 15:30:05 2024

Set parameter LogFile to value "./Results/StripPacking_CutsTest_SU/Logs/SU-StripPacking-21.log"
Set parameter TimeLimit to value 3600
Set parameter Cuts to value 0
Set parameter Presolve to value 1
Set parameter Heuristics to value 1
Gurobi Optimizer version 11.0.0 build v11.0.0rc2 (win64 - Windows 10.0 (19045.2))

CPU model: Intel(R) Core(TM) i9-10980XE CPU @ 3.00GHz, instruction set [SSE2|AVX|AVX2|AVX512]
Thread count: 18 physical cores, 36 logical processors, using up to 18 threads

Optimize a model with 2751 rows, 883 columns and 6762 nonzeros
Model fingerprint: 0x71ede791
Variable types: 43 continuous, 840 integer (840 binary)
Coefficient statistics:
  Matrix range     [1e+00, 3e+02]
  Objective range  [1e+00, 1e+00]
  Bounds range     [1e+00, 3e+02]
  RHS range        [1e+00, 3e+02]
Presolve removed 27 rows and 11 columns
Presolve time: 0.00s
Presolved: 2724 rows, 872 columns, 6692 nonzeros
Variable types: 43 continuous, 829 integer (829 binary)

Root relaxation: objective 1.540000e+02, 638 iterations, 0.02 seconds (0.02 work units)

    Nodes    |    Current Node    |     Objective Bounds      |     Work
 Expl Unexpl |  Obj  Depth IntInf | Incumbent    BestBd   Gap | It/Node Time

     0     0  154.00000    0   49          -  154.00000      -     -    0s
     0     0  172.00000    0   44          -  172.00000      -     -    0s
     0     0  172.00000    0   44          -  172.00000      -     -    0s
     0     2  172.00000    0   29          -  172.00000      -     -    3s
* 2713  1209             116     297.0000000  202.00000  32.0%  16.0    4s
  3911  1567 infeasible   22       297.00000  202.00000  32.0%  20.3    5s
H 3930  1484                     293.0000000  202.00000  31.1%  20.5    5s
H 3996  1398                     288.0000000  202.00000  29.9%  21.2    5s
H 4003  1328                     286.0000000  202.00000  29.4%  21.6    5s
H 4161  1079                     286.0000000  202.00000  29.4%  22.3    7s
  4259  1106  281.00000   33  104  286.00000  281.00000  1.75%  22.4   10s
H 4266  1042                     284.0000000  281.00000  1.06%  22.4   10s
H 4452   956                     282.0000000  281.00000  0.35%  22.4   11s

Explored 4583 nodes (102922 simplex iterations) in 11.92 seconds (13.44 work units)
Thread count was 18 (of 36 available processors)

Solution count 7: 282 284 286 ... 297

Optimal solution found (tolerance 1.00e-04)
Best objective 2.820000000000e+02, best bound 2.820000000000e+02, gap 0.0000%

Gurobi 11.0.0 (win64) logging started Thu Apr 18 15:30:17 2024

Set parameter LogFile to value "./Results/StripPacking_CutsTest_SU/Logs/SU-StripPacking-21.log"
Set parameter TimeLimit to value 3600
Set parameter Cuts to value 0
Set parameter Presolve to value 0
Set parameter Heuristics to value 0
Gurobi Optimizer version 11.0.0 build v11.0.0rc2 (win64 - Windows 10.0 (19045.2))

CPU model: Intel(R) Core(TM) i9-10980XE CPU @ 3.00GHz, instruction set [SSE2|AVX|AVX2|AVX512]
Thread count: 18 physical cores, 36 logical processors, using up to 18 threads

Optimize a model with 2751 rows, 883 columns and 6762 nonzeros
Model fingerprint: 0x71ede791
Variable types: 43 continuous, 840 integer (840 binary)
Coefficient statistics:
  Matrix range     [1e+00, 3e+02]
  Objective range  [1e+00, 1e+00]
  Bounds range     [1e+00, 3e+02]
  RHS range        [1e+00, 3e+02]
Variable types: 43 continuous, 840 integer (840 binary)

Root relaxation: objective 1.540000e+02, 583 iterations, 0.02 seconds (0.02 work units)

    Nodes    |    Current Node    |     Objective Bounds      |     Work
 Expl Unexpl |  Obj  Depth IntInf | Incumbent    BestBd   Gap | It/Node Time

     0     0  154.00000    0   56          -  154.00000      -     -    0s
     0     0  172.00000    0   44          -  172.00000      -     -    0s
     0     0  172.00000    0   40          -  172.00000      -     -    0s
     0     2  172.00000    0   34          -  172.00000      -     -    0s
* 4976  2167              56     298.0000000  202.00000  32.2%  22.9    1s
* 5088  2108              56     297.0000000  202.00000  32.0%  22.8    1s
* 5283  2072              69     297.0000000  202.00000  32.0%  23.1    1s
* 5847  2057              70     292.0000000  202.00000  30.8%  22.2    1s
* 7151  1475              77     290.0000000  212.00000  26.9%  20.7    1s
* 8235  1050              73     288.0000000  271.00000  5.90%  19.2    2s
*12360  1778              99     287.0000000  271.00000  5.57%  16.7    2s
*14301  1117              77     286.0000000  280.00000  2.10%  16.6    2s
*14943  1807              89     284.0000000  281.00000  1.06%  16.4    2s
*17104  2315              72     282.0000000  281.00000  0.35%  15.6    3s
 26947  1085  281.00000   37   70  282.00000  281.00000  0.35%  14.4    5s
 50149   689  281.00000   57   40  282.00000  281.00000  0.35%  11.6   11s
 75284   433 infeasible   68       282.00000  281.00000  0.35%  10.5   15s
 91736    97  281.00000   63   82  282.00000  281.00000  0.35%  10.2   20s

Explored 96340 nodes (983400 simplex iterations) in 21.23 seconds (6.72 work units)
Thread count was 18 (of 36 available processors)

Solution count 10: 282 284 286 ... 298

Optimal solution found (tolerance 1.00e-04)
Best objective 2.820000000000e+02, best bound 2.820000000000e+02, gap 0.0000%
